1113 2697
4391 1933
4207 3618
4115 1519
1362 4649
3729 708
303 4106
18 4741
2320 1721
3857 460
2016 1666
4401 4613
3462 2320
4843 1427
4235 1906
4374 1132
2016 2016
2541 3775
3048 957
2081 506
3526 2514
9 1123
2827 1721
2044 847
2127 3084
92 2403
662 690
267 3904
4134 617
1169 3922
1768 2311
1243 27
4502 3416
2560 2587
2688 2560
2219 1455
3287 4465
331 18
1445 1344
2366 331
4797 3784
165 994
2504 4051
4143 349
947 4115
929 2310
3885 4446
1757 1288
1601 1370
2199 2816
